wr=222;
nProviders=35;

cost_worker=[ 397 454 243 288 364 320 461 474 271 323 393 232 265 486 286 455 368 432 484 260 325 468 262 449 358 398 329 306 302 344 314 415 386 376 315 ];
available_workers=[ 20 15 20 20 18 15 18 19 17 19 17 15 16 16 17 18 17 17 17 15 16 17 16 18 20 20 20 18 16 18 16 16 16 17 16 ];
cost_contract=[ 1368 856 2107 1932 2321 1634 920 1314 1177 1773 1517 1434 1285 2374 1391 2440 1136 2234 1973 1565 1845 1689 1718 1851 955 2173 1791 1084 1673 1295 1123 1945 1457 2092 1136 ];
country=[ 1 4 5 5 3 3 5 4 3 1 5 4 5 3 5 3 4 1 5 3 5 5 5 5 3 3 1 3 3 5 4 4 5 1 3 ];
cost_1=5;
cost_2=7;
cost_3=150;
